c Random generated cnf formula, satisfiable: true
p cnf 10 50
-7 1 2 0
-5 9 3 0
9 6 7 0
-2 3 4 0
9 1 5 0
2 6 3 0
-10 9 2 0
-3 5 7 0
3 6 9 0
1 -4 2 0
-5 -2 -4 0
3 8 9 0
9 8 -4 0
4 9 -2 0
7 3 -8 0
-4 -8 -6 0
-7 -2 -8 0
-2 4 -10 0
-6 4 -2 0
-2 6 -1 0
-7 -2 -5 0
-10 3 -5 0
6 8 -10 0
6 5 -4 0
-6 -7 1 0
-2 -9 6 0
-3 -10 -8 0
2 6 3 0
-6 2 -1 0
-5 -6 -2 0
6 -9 2 0
4 1 6 0
-5 7 -2 0
-9 2 -10 0
1 -6 -3 0
-8 -9 -5 0
9 8 6 0
6 10 4 0
3 -8 4 0
-2 -10 7 0
10 6 2 0
8 -10 7 0
8 -1 -3 0
5 3 4 0
-5 8 -4 0
-7 10 8 0
-9 -6 1 0
6 5 -8 0
6 8 1 0
-10 9 -7 0
